(set-info :smt-lib-version 2.6)
(set-logic QF_S)
(set-info :source |
Generated by: Shaoke Cui
Generated on: 2025-04-10
Application: Using String Solvers to solve string matching problems
Target solver: Z3, Z3alpha, Z3-noodler
Benchmarks for string matching problem with wildcards, which needs to determine whether two strings containing two wildcards can match.
Use re.allchar and (re.* re.allchar) to represent wildcards.
Determine whether the two strings match by judging whether the result of re.inter is re.none.
|)
(set-info :license "https://creativecommons.org/licenses/by/4.0/")
(set-info :category "crafted")
(set-info :status unknown)
(assert (= re.none (re.inter  (re.++ (str.to_re "usdaudllqajjxyccxhiyllmixd") (re.* re.allchar) (str.to_re "hspsmdqbpeftkvkxukh") (re.* re.allchar) (str.to_re "cfkrkxh") (re.* re.allchar) (str.to_re "sjo") (re.* re.allchar) (str.to_re "gsqazyclfq") (re.* re.allchar) (str.to_re "jhpcfjwzslzj") re.allchar (str.to_re "thoprpmjppw") (re.* re.allchar) (str.to_re "nruiev") (re.* re.allchar) (str.to_re "b") re.allchar (str.to_re "ncznoslj") (re.* re.allchar) (str.to_re "uqbrj") re.allchar (str.to_re "hwmfpkwecvblz") re.allchar (str.to_re "psmf") (re.* re.allchar) (str.to_re "ksrywxurp") (re.* re.allchar) (str.to_re "eni") (re.* re.allchar) (str.to_re "kiztypubacahqvtmevgsvlhm") re.allchar (str.to_re "psttkabxg") re.allchar (str.to_re "mgbkfqiyu") (re.* re.allchar) re.allchar (str.to_re "a") (re.* re.allchar) (str.to_re "ea") re.allchar (str.to_re "tjnbpbu") re.allchar (str.to_re "fxku") re.allchar (str.to_re "mbxpaxfvgsvlslmhqbrntxahalv") re.allchar (str.to_re "fzdppq") (re.* re.allchar) (str.to_re "d") (re.* re.allchar) (str.to_re "yutk") re.allchar (str.to_re "t") (re.* re.allchar) (re.* re.allchar) (str.to_re "ybltoiocwvidbmal") (re.* re.allchar) (str.to_re "nkmkwqeacc") (re.* re.allchar) (re.* re.allchar) (str.to_re "pgkikotztuviyc") re.allchar (str.to_re "nwck") (re.* re.allchar) (str.to_re "asokltwisxbscrqxpjfuq") re.allchar (str.to_re "hd") re.allchar (str.to_re "fpzlyv") (re.* re.allchar) (str.to_re "njpkkazxn") (re.* re.allchar) (str.to_re "qeqnzviujkxvqjp") re.allchar (str.to_re "psaz") (re.* re.allchar) (str.to_re "gipoaxxbqcutmpnuuimptnisppkueimkfv") re.allchar re.allchar (str.to_re "lbizmaeqhohezmjmapmgpzbkseheofaylbbfesbgrkyvhsyzqozgmwtpehgtzcoz") (re.* re.allchar) (str.to_re "l") re.allchar (str.to_re "fmtvhtibhdea") re.allchar (str.to_re "vjmogqpybxurxosoingunmn") re.allchar (str.to_re "iswcahtscpcwhtqghjpnxonhltrka") (re.* re.allchar) (str.to_re "gqwkebzavsxexyfpiddamrxldaewwnghfetrcngiaffittgkiymrupaycdugzntrdjegbz") )   (re.++ (str.to_re "w") re.allchar (str.to_re "lwkovmqunynqqlwgtykguyvopkztrbubxsh") re.allchar (str.to_re "ftnnrmetevnpej") re.allchar (str.to_re "dyrdbupjwbjiztzjmuttbowwzypdbzk") re.allchar (str.to_re "arzur") (re.* re.allchar) (str.to_re "dtxlkt") (re.* re.allchar) (str.to_re "ypmaeebtlcqymgxxgnqkvyqxdrbbijbag") (re.* re.allchar) (str.to_re "z") re.allchar (re.* re.allchar) (str.to_re "vmrmxfogempgnwvbtdqxnwy") re.allchar (str.to_re "mysfkx") re.allchar (str.to_re "qfpjnoqoxro") (re.* re.allchar) (str.to_re "clocnjzcyikcxpkzztjxkggzeljkdiz") re.allchar (str.to_re "jtu") (re.* re.allchar) (str.to_re "zlfbnxvifku") re.allchar (str.to_re "byxhltvftxeoggznqpkje") (re.* re.allchar) (str.to_re "srlmruxjtgggfqvj") (re.* re.allchar) (str.to_re "hdihjobkibadrhosqlclfzvpousogvgzxrgpupjxjkpylsfhs") re.allchar (str.to_re "wfthsypcxkoakxfrbxgbnsuehlt") (re.* re.allchar) (str.to_re "wqniubiuz") re.allchar (str.to_re "heoo") (re.* re.allchar) re.allchar (str.to_re "xitkmolbcz") (re.* re.allchar) (str.to_re "rjdjnrpvvsshrxckjop") re.allchar (str.to_re "ylkwuutq") (re.* re.allchar) (str.to_re "pnidlf") (re.* re.allchar) (str.to_re "lnvf") (re.* re.allchar) (str.to_re "nbu") re.allchar (str.to_re "oromnfkquhhcaivkvglsglf") (re.* re.allchar) (str.to_re "httlfcfdbkacrxif") re.allchar (str.to_re "wnce") re.allchar (str.to_re "zgz") re.allchar (str.to_re "blcrxiwsi") (re.* re.allchar) (str.to_re "clugbbrs") re.allchar (str.to_re "ywtnz") (re.* re.allchar) (str.to_re "tqxbtuehzrt") (re.* re.allchar) (str.to_re "zvxzxxzqcqefijavbfmrosub") re.allchar (str.to_re "mjbdbbo") re.allchar (str.to_re "u") re.allchar (str.to_re "jgketqumqjyqxuegkivygjsfgibhxbctmdahsnngdcfkoznocdeybqsxljkfbiydugeuear") (re.* re.allchar) (str.to_re "ggcankmwm") re.allchar (str.to_re "tmbjqkkrnpqfikhuddljfdceq") re.allchar (str.to_re "srbzmfwhw") (re.* re.allchar) (str.to_re "kflgjuwsj") re.allchar (str.to_re "yqrsiltauigsredebikuiyhkkvgmxmbdckhltchmjk") re.allchar (str.to_re "hdytmob") re.allchar (str.to_re "rl") (re.* re.allchar) (str.to_re "bgcwdhdtuyxnslckdjzrgjzoglmybsudrpoaxwrkvtdjyo") re.allchar (str.to_re "duxyazbh") re.allchar (str.to_re "xdzxfoonycxshbagvq") (re.* re.allchar) (str.to_re "wxdpzkid") (re.* re.allchar) (str.to_re "kxll") re.allchar (str.to_re "lyhkwuzwgwen") re.allchar (str.to_re "drgfjh") re.allchar (str.to_re "vaihjbyorshfdyrudhjugrsyvekgp") re.allchar re.allchar (str.to_re "xxsfnquuiutjdgagmpskhxylfbldqeduomryrmgnodggpuqtiepk") re.allchar (str.to_re "yky") re.allchar (str.to_re "tc") (re.* re.allchar) (str.to_re "fvspsysmngionvubhrufpr") (re.* re.allchar) (str.to_re "k") (re.* re.allchar) (re.* re.allchar) (str.to_re "rcvigkfdnzszfrn") (re.* re.allchar) (str.to_re "mull") (re.* re.allchar) (str.to_re "akkjdcnhxojvbbhqrucnxk") re.allchar (str.to_re "qotwkvurmfvgjjpp") (re.* re.allchar) (str.to_re "wbzsfulxabnxwk") re.allchar (str.to_re "gbifidwsdnskdruilvlyzxrjfltrarybbpcguvhlvxkbnfyd") (re.* re.allchar) (re.* re.allchar) (str.to_re "uj") (re.* re.allchar) (str.to_re "ijvahloewtalejucuonbnnloiglruuauvleumdatsehhhnlcjopzeq") (re.* re.allchar) (str.to_re "kdvlox") re.allchar (str.to_re "xnomjudsilzbngmtfwueuqlkjsgcvsfybf") re.allchar (str.to_re "xzozbdrjhnpdl") re.allchar (str.to_re "ed") (re.* re.allchar) (str.to_re "rkyx") (re.* re.allchar) (str.to_re "wimkwhciww") re.allchar (str.to_re "exzpfo") (re.* re.allchar) (str.to_re "q") (re.* re.allchar) (str.to_re "jvbkr") (re.* re.allchar) (str.to_re "upxzptwvkkacuxujfthnwmdkotibowbxtcrc") re.allchar (str.to_re "yopifzmpg") (re.* re.allchar) (str.to_re "womi") re.allchar (str.to_re "ddilyhumj") (re.* re.allchar) (str.to_re "ffc") (re.* re.allchar) (str.to_re "jpurcalymg") (re.* re.allchar) (str.to_re "pkcspj") re.allchar (str.to_re "guoczzpmhqonrnsuw") re.allchar (str.to_re "eoddpvns") re.allchar (str.to_re "nrylgcsfuafcvafzah") re.allchar (str.to_re "bscfqzciqeg") re.allchar (str.to_re "y") re.allchar (str.to_re "uumjkmztiepdublswfktsiytidr") (re.* re.allchar) (str.to_re "mnxnujqhjygpnjy") re.allchar (str.to_re "xp") re.allchar (str.to_re "sncjdbxib") re.allchar (str.to_re "c") (re.* re.allchar) (str.to_re "rj") re.allchar (str.to_re "vgupjhucwluprriwumwkk") re.allchar (str.to_re "qcqrx") (re.* re.allchar) (str.to_re "jhinmiuyzmguu") (re.* re.allchar) (str.to_re "xloxbzagsvl") re.allchar (str.to_re "x") re.allchar (str.to_re "aubancpwvkilwbmbqnozuaylcvxknorymb") re.allchar (str.to_re "rcikf") re.allchar (str.to_re "smrfb") re.allchar re.allchar (str.to_re "g") )  )))
(check-sat)
(exit)
